p tw 83 90
1 2
2 13
3 4
4 5
5 6
6 7
6 78
7 8
8 9
9 10
10 11
11 12
12 14
12 28
13 24
14 15
15 16
15 36
16 17
17 18
17 43
18 19
19 20
19 62
20 21
21 22
21 51
22 23
23 25
23 54
24 35
25 26
26 27
26 70
27 72
28 29
29 30
30 31
31 32
32 33
33 34
34 72
35 46
36 37
37 38
38 39
39 40
40 41
41 42
42 72
43 44
44 45
45 47
46 57
47 48
48 49
49 50
50 72
51 52
52 53
53 72
54 55
55 56
56 58
57 68
58 59
59 60
60 61
61 72
62 63
63 64
64 65
65 66
66 67
67 69
68 79
69 72
70 71
71 81
72 73
73 74
74 75
75 76
76 77
77 4
78 80
79 83
80 81
81 82
83 3
